DIMENSION: 70
48
54
62
39
45
25
61
40
9
46
27
68
44
30
20
14
28
8
49
55
26
3
32
7
19
2
4
18
42
43
17
41
6
24
15
57
66
63
22
59
35
70
69
31
13
29
38
23
36
1
16
47
37
58
50
53
5
10
52
33
21
34
12
60
51
64
65
11
56
67
